multiobj/instances/uniform/Ter.7.2.1.00.1.in
7 2
0 354 977 433 188 905 753 
354 0 244 73 832 51 412 
977 244 0 484 391 403 210 
433 73 484 0 516 430 245 
188 832 391 516 0 147 797 
905 51 403 430 147 0 229 
753 412 210 245 797 229 0 
0 943 689 317 912 569 441 
943 0 945 43 71 668 754 
689 945 0 571 979 674 408 
317 43 571 0 625 701 169 
912 71 979 625 0 179 578 
569 668 674 701 179 0 490 
441 754 408 169 578 490 0 
0 943 689 317 912 569 441 
943 0 945 43 71 668 754 
689 945 0 571 979 674 408 
317 43 571 0 625 701 169 
912 71 979 625 0 179 578 
569 668 674 701 179 0 490 
441 754 408 169 578 490 0 
