multiobj/solutions/Ter.7.2.1.00.1.out
1 2
5 6 3 0 4 1 2 
7836578 7836578 
